COMMENT : drilling problem (Ludwig)
288 288 270 256 256 246 236 228 228 220 212 204 196 188 196 188 172 164 156 148 140 148 164 172 156 140 132 124 116 104 104 104 90 80 64 64 56 56 56 56 56 56 56 40 40 40 40 40 40 40 32 32 32 32 32 32 32 32 40 56 56 48 40 32 32 24 16 16 8 8 8 8 8 8 8 16 8 8 24 32 32 32 32 32 32 40 40 40 40 44 44 44 32 24 16 16 24 32 44 56 56 56 56 56 64 72 72 56 48 56 56 48 48 56 56 48 56 56 104 104 104 104 104 104 104 116 124 132 132 140 148 156 164 172 172 172 172 172 172 180 180 180 180 180 172 172 172 172 164 148 124 124 124 124 124 124 104 104 104 104 104 104 104 104 104 92 80 72 64 72 80 80 80 88 104 124 124 132 140 132 124 124 124 124 124 132 124 120 128 136 148 162 156 172 180 180 172 172 172 180 180 188 196 204 212 220 228 228 236 236 236 228 228 236 236 228 228 236 236 228 228 236 252 260 260 260 260 260 260 260 276 276 276 276 284 284 284 284 284 284 284 288 280 276 276 276 268 260 252 260 260 236 228 228 236 236 228 228 228 228 220 212 204 196 188 180 180 180 180 180 196 204 212 220 228 236 246 252 260 280
149 129 133 141 157 157 169 169 161 169 169 169 169 169 161 145 145 145 145 145 145 169 169 169 169 169 169 169 161 153 161 169 165 157 157 165 169 161 153 145 137 129 121 121 129 137 145 153 161 169 169 161 153 145 137 129 121 113 113 113 105 99 99 97 89 89 97 109 109 97 89 81 73 65 57 57 49 41 45 41 49 57 65 73 81 83 73 63 51 43 35 27 25 25 25 17 17 17 11 9 17 25 33 41 41 41 49 49 51 57 65 63 73 73 81 83 89 97 97 105 113 121 129 137 145 145 145 145 137 137 137 137 137 125 117 109 101 93 85 85 77 69 61 53 53 61 69 77 81 85 85 93 109 125 117 101 89 81 73 65 49 41 33 25 17 9 9 9 21 25 25 25 41 49 57 69 77 81 65 61 61 53 45 37 29 21 21 9 9 9 9 9 25 21 21 29 29 37 45 45 37 41 49 57 65 73 69 77 77 69 61 61 53 53 45 45 37 37 29 29 21 21 21 29 37 45 53 61 69 77 77 69 61 53 53 61 69 77 85 93 101 109 109 101 93 85 97 109 101 93 85 85 85 93 93 101 101 109 117 125 125 117 109 101 93 93 101 109 117 125 145 145 145 145 145 145 141 125 129 133
31263.2 30789.1 30789.1 30499.7 30499.7 30499.7 30159.3 30159.3 30159.3 30159.3 30159.3 30159.3 30159.3 30159.3 30159.3 30159.3 30159.3 30159.3 30159.3 30159.3 30159.3 30159.3 30159.3 30159.3 30159.3 30159.3 30159.3 30159.3 30159.3 30159.3 30159.3 30005 30005 30005 30005 30005 30005 30005 30005 30005 30005 30005 30005 30005 30005 30005 30005 30005 30005 30005 30005 30005 30005 30005 30005 30005 30005 30005 30005 30005 30005 30005 30005 30005 30005 30005 30005 30005 30005 30005 30005 30005 30005 30005 30005 30005 30005 30005 30005 30005 30005 30005 30005 30005 30005 30005 30005 30005 30005 30005 30005 30005 30005 30005 30005 30005 30005 30005 30005 30005 30005 30005 30005 30005 30005 30005 30005 30005 30005 30005 30005 30005 30005 30005 30005 30005 30005 30005 30005 30005 30005 30005 30005 30005 30005 30005 30005 30005 29953 29953 29953 29953 29953 29953 29953 29953 29953 29953 29953 29953 29953 29953 29953 29953 29953 29953 29953 29953 29953 29953 29953 29953 29953 29953 29953 29953 29953 29953 29953 29953 29953 29953 29953 29953 29953 29953 29953 29953 29953 29953 29953 29953 29953 29953 29953 29953 29953 29953 29953 29953 29953 29953 29953 29953 29953 29953 29953 29953 29953 29953 29953 29953 29953 29953 29953 29953 29953 29953 29953 29953 29953 29953 29953 29953 29953 29953 29953 29953 29953 29953 29953 29953 29953 29953 29953 29953 29953 29953 29953 29953 29953 29953 29953 29953 29953 29953 29953 29953 29953 29593.7 29593.7 29593.7 29593.7 29593.7 29593.7 29593.7 29593.7 29593.7 29593.7 29593.7 29593.7 29593.7 29593.7 29593.7 29593.7 29593.7 29593.7 29593.7 29593.7 29593.7 29593.7 29593.7 29593.7 29593.7 29593.7 29593.7 29593.7 29593.7 29593.7 29593.7 29593.7 29593.7 29593.7 29593.7 29593.7 29593.7 29593.7 29593.7 29593.7 29593.7 29593.7 29593.7 29593.7 29593.7 29593.7 29593.7 29593.7 29593.7 29593.7 29593.7 29593.7 29593.7 29593.7 29593.7 29593.7 29593.7 29593.7 29593.7 29593.7 29593.7 29593.7 29593.7 29593.7 29593.7 29593.7 29593.7 29593.7 29593.7 29593.7 29593.7 29593.7 29593.7 29593.7 29593.7 29593.7 29593.7 29593.7 29593.7 29593.7 29593.7 29593.7 29593.7 29593.7 29593.7 29593.7 29593.7 29593.7 29593.7 29593.7 29593.7 29593.7 29593.7 29593.7 29593.7 29593.7 29593.7 29593.7 29593.7 29593.7 29593.7 29593.7 29593.7 29593.7 29593.7 29593.7 29593.7 29593.7 29593.7 29593.7 29593.7 29593.7 29593.7 29593.7 29593.7 29593.7 29593.7 29593.7 29593.7 29593.7 29593.7 29593.7 29593.7 29593.7 29593.7 29593.7 29593.7 29593.7 29593.7 29593.7 29593.7 29593.7 29593.7 29593.7 29593.7 29593.7 29593.7 29593.7 29593.7 29593.7 29593.7 29593.7 29593.7 29593.7 29593.7 29593.7 29593.7 29593.7 29593.7 29593.7 29593.7 29593.7 29593.7 29593.7 29593.7 29593.7 29593.7 29593.7 29593.7 29593.7 29593.7 29593.7 29593.7 29593.7 29593.7 29593.7 29593.7 29593.7 29593.7 29593.7 29593.7 29593.7 29593.7 29593.7 29593.7 29593.7 29593.7 29593.7 29593.7 29593.7 29593.7 29593.7 29593.7 29593.7 29593.7 29593.7 29593.7 29593.7 29593.7 29593.7 29593.7 29593.7 29593.7 29593.7 29593.7 29593.7 29593.7 29593.7 29593.7 29593.7 29593.7 29593.7 29593.7 29593.7 29593.7 29593.7 29593.7 29593.7 29593.7 29593.7 29593.7 29593.7 29593.7 29593.7 29593.7 29593.7 29593.7 29593.7 29593.7 29593.7 29593.7 29593.7 29593.7 29593.7 29593.7 29593.7 29593.7 29593.7 29593.7 29593.7 29593.7 29593.7 29593.7 29593.7 29593.7 29593.7 29593.7 29593.7 29593.7 29593.7 29593.7 29593.7 29593.7 29593.7 29593.7 29593.7 29593.7 29593.7 29593.7 29593.7 29593.7 29593.7 29593.7 29593.7 29593.7 29593.7 29593.7 29593.7 29593.7 29593.7 29593.7 29593.7 29593.7 29593.7 29593.7 29593.7 29593.7 29593.7 29593.7 29593.7 29593.7 29593.7 29593.7 29593.7 29593.7 29593.7 29593.7 29593.7 29593.7 29593.7 29593.7 29593.7 29593.7 29593.7 29593.7 29593.7 29593.7 29593.7 29593.7 29593.7 29593.7 29593.7 29593.7 29593.7 29593.7 29593.7 29593.7 29593.7 29593.7 29593.7 29593.7 29593.7 29593.7 29593.7 29593.7 29593.7 29593.7 29593.7 29593.7 29593.7 29593.7 29593.7 29593.7 29593.7 29593.7 29593.7 29593.7 29593.7 29593.7 29593.7 29593.7 29593.7 29593.7 29593.7 29593.7 29593.7 29593.7 29593.7 29593.7 29593.7 29593.7 29593.7 29593.7 29593.7 29593.7 29593.7 29593.7 29593.7 29593.7 29593.7 29593.7 29593.7 29593.7 29593.7 29593.7 29593.7 29593.7 29593.7 29593.7 29593.7 29593.7 29593.7 29593.7 29593.7 29593.7 29593.7 29593.7 29593.7 29593.7 29593.7 29593.7 29593.7 29593.7 29593.7 29593.7 29593.7 29593.7 29593.7 29593.7 29593.7 29593.7 29593.7 29593.7 29593.7 29593.7 29593.7 29593.7 29593.7 29593.7 29593.7 29593.7 29593.7 29593.7 29593.7 29593.7 29593.7 29593.7 29593.7 29593.7 29593.7 29593.7 29593.7 29593.7 29593.7 29593.7 29593.7 29593.7 29593.7 29593.7 29593.7 29593.7 29593.7 29593.7 29593.7 29593.7 29593.7 29593.7 29593.7 29593.7 29593.7 29593.7 29593.7 29593.7 29593.7 29593.7 29593.7 29593.7 29593.7 29593.7 29593.7 29593.7 29593.7 29593.7 29593.7 29593.7 29593.7 29593.7 29593.7 29593.7 29593.7 29593.7 29593.7 29593.7 29593.7 29593.7 29593.7 29593.7 29593.7 29593.7 29593.7 29593.7 29593.7 29593.7 29593.7 29593.7 29593.7 29593.7 29593.7 29593.7 29593.7 29593.7 29593.7 29593.7 29593.7 29593.7 29593.7 29593.7 29593.7 29593.7 29593.7 29593.7 29593.7 29593.7 29593.7 29593.7 29593.7 29593.7 29593.7 29593.7 29593.7 29593.7 29593.7 29593.7 29593.7 29593.7 29593.7 29593.7 29593.7 29593.7 29593.7 29593.7 29593.7 29593.7 29593.7 29593.7 29593.7 29593.7 29593.7 29593.7 29593.7 29593.7 29593.7 29593.7 29593.7 29593.7 29593.7 29593.7 29593.7 29593.7 29593.7 29593.7 29593.7 29593.7 29593.7 29593.7 29593.7 29593.7 29593.7 29593.7 29593.7 29593.7 29593.7 29593.7 29593.7 29593.7 29593.7 29593.7 29593.7 29593.7 29593.7 29593.7 29593.7 29593.7 29593.7 29593.7 29593.7 29593.7 29593.7 29593.7 29593.7 29593.7 29593.7 29593.7 29593.7 29593.7 29593.7 29593.7 29593.7 29593.7 29593.7 29593.7 29593.7 29593.7 29593.7 29593.7 29593.7 29593.7 29593.7 29593.7 29593.7 29593.7 29593.7 29593.7 29593.7 29593.7 29593.7 29593.7 29593.7 29593.7 29593.7 29593.7 29593.7 29593.7 29593.7 29593.7 29593.7 29593.7 29593.7 29593.7 29593.7 29593.7 29593.7 29593.7 29593.7 29593.7 29593.7 29593.7 29593.7 29593.7 29593.7 29593.7 29593.7 29593.7 29593.7 29593.7 29593.7 29593.7 29593.7 29593.7 29593.7 29593.7 29593.7 29593.7 29593.7 29593.7 29593.7 29593.7 29593.7 29593.7 29593.7 29593.7 29593.7 29593.7 29593.7 29593.7 29593.7 29593.7 29593.7 29593.7 29593.7 29593.7 29593.7 29593.7 29593.7 29593.7 29593.7 29593.7 29593.7 29593.7 29593.7 29593.7 29593.7 29593.7 29593.7 29593.7 29593.7 29593.7 29593.7 29593.7 29593.7 29593.7 29593.7 29593.7 29593.7 29593.7 29593.7 29593.7 29593.7 29593.7 29593.7 29593.7 29593.7 29593.7 29593.7 29593.7 29593.7 29593.7 29593.7 29593.7 29593.7 29593.7 29593.7 29593.7 29593.7 29593.7 29593.7 29593.7 29593.7 29593.7 29593.7 29593.7 29593.7 29593.7 29593.7 29593.7 29593.7 29593.7 29593.7 29593.7 29593.7 29593.7 29593.7 29593.7 29593.7 29593.7 29593.7 29593.7 29593.7 29593.7 29593.7 29593.7 29593.7 29593.7 29593.7 29593.7 29593.7 29593.7 29593.7 29593.7 29593.7 29593.7 29593.7 29593.7 29593.7 29593.7 29593.7 29593.7 29593.7 29593.7 29593.7 29593.7 29593.7 29593.7 29593.7 29593.7 29593.7 29593.7 29593.7 29593.7 29593.7 29593.7 29593.7 29593.7 29593.7 29593.7 29593.7 29593.7 29593.7 29593.7 29593.7 29593.7 29593.7 29593.7 29593.7 29593.7 29593.7 29593.7 29593.7 29593.7 29593.7 29593.7 29593.7 29593.7 29593.7 29593.7 29593.7 29593.7 29593.7 29593.7 29593.7 29593.7 29593.7 29593.7 29593.7 29593.7 29593.7 29593.7 29593.7 29593.7 29593.7 29593.7 29593.7 29593.7 29593.7 29593.7 29593.7 29593.7 29593.7 29593.7 29593.7 29593.7 29593.7 29593.7 29593.7 29593.7 29593.7 29593.7 29593.7 29593.7 29593.7 29593.7
261 73 77 239 1 54 65 58 154 117 168 133 275 236 229 200 185 38 105 44 31 258 232 279 86 194 213 243 268 108 37 63 55 160 129 245 181 150 267 241 183 32 100 189 16 23 19 60 57 59 13 197 231 151 272 276 122 125 178 217 102 27 95 88 61 25 152 249 237 140 266 157 113 253 8 47 235 173 164 10 280 137 139 161 11 257 148 198 72 81 248 26 167 187 240 15 123 89 106 92 71 186 20 205 277 188 196 79 158 201 244 124 128 149 269 109 14 143 216 195 180 247 56 90 29 182 120 172 53 82 192 263 43 211 84 130 138 221 169 62 111 176 271 78 24 7 94 147 219 162 30 52 212 228 116 227 18 210 255 4 250 142 184 126 202 175 80 91 141 260 12 265 144 222 98 67 225 262 223 199 68 75 171 49 36 99 159 40 179 112 42 170 39 224 273 206 165 93 233 3 256 208 2 28 35 246 218 251 252 155 5 207 203 209 270 85 114 278 119 64 22 121 48 156 76 163 274 193 204 230 33 96 87 9 254 264 6 226 131 17 51 46 118 136 134 145 166 101 97 132 174 177 34 66 110 220 214 153 259 21 107 83 70 146 242 191 50 103 45 115 74 41 104 215 135 234 127 190 69 238
1 2 242 243 244 241 240 239 238 237 236 235 234 233 232 231 246 245 247 250 251 230 229 228 227 226 225 224 223 222 221 220 219 218 217 216 215 214 213 212 211 210 207 206 205 204 203 202 201 198 197 196 195 194 193 192 191 190 189 188 187 186 185 184 183 182 181 176 180 179 150 178 177 151 152 156 153 155 154 129 130 131 20 21 128 127 126 125 124 123 122 121 120 119 157 158 159 160 175 161 162 163 164 165 166 167 168 169 170 172 171 173 174 107 106 105 104 103 102 101 100 99 98 97 96 95 94 93 92 91 90 89 109 108 110 111 112 88 87 113 114 115 117 116 86 85 84 83 82 81 80 79 78 77 76 75 74 73 72 71 70 69 68 67 66 65 64 58 57 56 55 54 53 52 51 50 49 48 47 46 45 44 59 63 62 118 61 60 43 42 41 40 39 38 37 36 35 34 33 32 31 30 29 28 27 26 22 25 23 24 14 15 13 12 11 10 9 8 7 6 5 4 277 276 275 274 273 272 271 16 17 18 19 132 133 134 270 269 135 136 268 267 137 138 139 149 148 147 146 145 199 200 144 143 142 141 140 266 265 264 263 262 261 260 259 258 257 254 253 208 209 252 255 256 249 248 278 279 3 280
